VER
4

OBJSENSE
MIN


QKDCONES
1 168
24 2 144 36 0
0 0 0 0.7071067811865476
0 2 1 0.7071067811865476
0 24 12 0.7071067811865476
0 26 13 0.7071067811865476
0 48 24 0.7071067811865476
0 50 25 0.7071067811865476
0 78 3 0.7071067811865476
0 80 4 0.7071067811865476
0 102 15 0.7071067811865476
0 104 16 0.7071067811865476
0 126 27 0.7071067811865476
0 128 28 0.7071067811865476
1 13 6 0.7071067811865476
1 15 7 0.7071067811865476
1 37 18 0.7071067811865476
1 39 19 0.7071067811865476
1 61 30 0.7071067811865476
1 63 31 0.7071067811865476
1 91 9 0.7071067811865476
1 93 10 0.7071067811865476
1 115 21 0.7071067811865476
1 117 22 0.7071067811865476
1 139 33 0.7071067811865476
1 141 34 0.7071067811865476
144 2 144 144 0
0 0 0 1.0
0 1 1 1.0
0 2 2 1.0
0 3 3 1.0
0 4 4 1.0
0 5 5 1.0
0 6 6 1.0
0 7 7 1.0
0 8 8 1.0
0 9 9 1.0
0 10 10 1.0
0 11 11 1.0
0 12 12 1.0
0 13 13 1.0
0 14 14 1.0
0 15 15 1.0
0 16 16 1.0
0 17 17 1.0
0 18 18 1.0
0 19 19 1.0
0 20 20 1.0
0 21 21 1.0
0 22 22 1.0
0 23 23 1.0
0 24 24 1.0
0 25 25 1.0
0 26 26 1.0
0 27 27 1.0
0 28 28 1.0
0 29 29 1.0
0 30 30 1.0
0 31 31 1.0
0 32 32 1.0
0 33 33 1.0
0 34 34 1.0
0 35 35 1.0
0 36 36 1.0
0 37 37 1.0
0 38 38 1.0
0 39 39 1.0
0 40 40 1.0
0 41 41 1.0
0 42 42 1.0
0 43 43 1.0
0 44 44 1.0
0 45 45 1.0
0 46 46 1.0
0 47 47 1.0
0 48 48 1.0
0 49 49 1.0
0 50 50 1.0
0 51 51 1.0
0 52 52 1.0
0 53 53 1.0
0 54 54 1.0
0 55 55 1.0
0 56 56 1.0
0 57 57 1.0
0 58 58 1.0
0 59 59 1.0
0 60 60 1.0
0 61 61 1.0
0 62 62 1.0
0 63 63 1.0
0 64 64 1.0
0 65 65 1.0
0 66 66 1.0
0 67 67 1.0
0 68 68 1.0
0 69 69 1.0
0 70 70 1.0
0 71 71 1.0
1 72 72 1.0
1 73 73 1.0
1 74 74 1.0
1 75 75 1.0
1 76 76 1.0
1 77 77 1.0
1 78 78 1.0
1 79 79 1.0
1 80 80 1.0
1 81 81 1.0
1 82 82 1.0
1 83 83 1.0
1 84 84 1.0
1 85 85 1.0
1 86 86 1.0
1 87 87 1.0
1 88 88 1.0
1 89 89 1.0
1 90 90 1.0
1 91 91 1.0
1 92 92 1.0
1 93 93 1.0
1 94 94 1.0
1 95 95 1.0
1 96 96 1.0
1 97 97 1.0
1 98 98 1.0
1 99 99 1.0
1 100 100 1.0
1 101 101 1.0
1 102 102 1.0
1 103 103 1.0
1 104 104 1.0
1 105 105 1.0
1 106 106 1.0
1 107 107 1.0
1 108 108 1.0
1 109 109 1.0
1 110 110 1.0
1 111 111 1.0
1 112 112 1.0
1 113 113 1.0
1 114 114 1.0
1 115 115 1.0
1 116 116 1.0
1 117 117 1.0
1 118 118 1.0
1 119 119 1.0
1 120 120 1.0
1 121 121 1.0
1 122 122 1.0
1 123 123 1.0
1 124 124 1.0
1 125 125 1.0
1 126 126 1.0
1 127 127 1.0
1 128 128 1.0
1 129 129 1.0
1 130 130 1.0
1 131 131 1.0
1 132 132 1.0
1 133 133 1.0
1 134 134 1.0
1 135 135 1.0
1 136 136 1.0
1 137 137 1.0
1 138 138 1.0
1 139 139 1.0
1 140 140 1.0
1 141 141 1.0
1 142 142 1.0
1 143 143 1.0

VAR
1297 1
@0:HVECQKD 1297

CON
180 1
L= 180

OBJACOORD
1
0 1.0

ACOORD
525
0 4 0.5
1 1 0.25
1 2 -0.3535533905932738
1 4 0.25
2 9 1.0
3 16 0.5
4 16 0.25
4 23 -0.3535533905932738
4 25 0.25
5 36 1.0
6 49 0.5
7 49 0.25
7 62 -0.3535533905932738
7 64 0.25
8 81 1.0
9 100 0.5
10 100 0.25
10 119 0.3535533905932738
10 121 0.25
11 144 1.0
12 169 0.5
13 169 0.25
13 194 -0.3535533905932738
13 196 0.25
14 225 1.0
15 256 0.5
16 256 0.25
16 287 -0.3535533905932738
16 289 0.25
17 324 1.0
18 361 0.5
19 361 0.25
19 398 0.3535533905932738
19 400 0.25
20 441 1.0
21 484 0.5
22 484 0.25
22 527 0.3535533905932738
22 529 0.25
23 576 1.0
24 625 0.5
25 625 0.25
25 674 0.3535533905932738
25 676 0.25
26 729 1.0
27 784 0.5
28 784 0.25
28 839 0.3535533905932738
28 841 0.25
29 900 1.0
30 961 0.5
31 961 0.25
31 1022 0.3535533905932738
31 1024 0.25
32 1089 1.0
33 1225 0.5
34 1156 0.25
34 1223 0.3535533905932738
34 1225 0.25
35 1296 1.0
36 1 1.0
36 4 1.0
36 9 1.0
37 10 1.0
37 19 1.0
37 30 1.0
38 37 1.0
38 52 1.0
38 69 1.0
39 82 1.0
39 103 1.0
39 126 1.0
40 145 1.0
40 172 1.0
40 201 1.0
41 226 1.0
41 259 1.0
41 294 1.0
42 325 1.0
42 364 1.0
42 405 1.0
43 442 1.0
43 487 1.0
43 534 1.0
44 577 1.0
44 628 1.0
44 681 1.0
45 730 1.0
45 787 1.0
45 846 1.0
46 901 1.0
46 964 1.0
46 1029 1.0
47 1090 1.0
47 1159 1.0
47 1230 1.0
48 11 -1.0
48 20 -1.0
48 31 -1.0
49 16 1.0
49 25 1.0
49 36 1.0
50 43 1.0
50 58 1.0
50 75 1.0
51 88 1.0
51 109 1.0
51 132 1.0
52 151 1.0
52 178 1.0
52 207 1.0
53 232 1.0
53 265 1.0
53 300 1.0
54 331 1.0
54 370 1.0
54 411 1.0
55 448 1.0
55 493 1.0
55 540 1.0
56 583 1.0
56 634 1.0
56 687 1.0
57 736 1.0
57 793 1.0
57 852 1.0
58 907 1.0
58 970 1.0
58 1035 1.0
59 1096 1.0
59 1165 1.0
59 1236 1.0
60 38 -1.0
60 53 -1.0
60 70 -1.0
61 44 -1.0
61 59 -1.0
61 76 -1.0
62 49 1.0
62 64 1.0
62 81 1.0
63 94 1.0
63 115 1.0
63 138 1.0
64 157 1.0
64 184 1.0
64 213 1.0
65 238 1.0
65 271 1.0
65 306 1.0
66 337 1.0
66 376 1.0
66 417 1.0
67 454 1.0
67 499 1.0
67 546 1.0
68 589 1.0
68 640 1.0
68 693 1.0
69 742 1.0
69 799 1.0
69 858 1.0
70 913 1.0
70 976 1.0
70 1041 1.0
71 1102 1.0
71 1171 1.0
71 1242 1.0
72 83 -1.0
72 104 -1.0
72 127 -1.0
73 89 -1.0
73 110 -1.0
73 133 -1.0
74 95 -1.0
74 116 -1.0
74 139 -1.0
75 100 1.0
75 121 1.0
75 144 1.0
76 163 1.0
76 190 1.0
76 219 1.0
77 244 1.0
77 277 1.0
77 312 1.0
78 343 1.0
78 382 1.0
78 423 1.0
79 460 1.0
79 505 1.0
79 552 1.0
80 595 1.0
80 646 1.0
80 699 1.0
81 748 1.0
81 805 1.0
81 864 1.0
82 919 1.0
82 982 1.0
82 1047 1.0
83 1108 1.0
83 1177 1.0
83 1248 1.0
84 146 -1.0
84 173 -1.0
84 202 -1.0
85 152 -1.0
85 179 -1.0
85 208 -1.0
86 158 -1.0
86 185 -1.0
86 214 -1.0
87 164 -1.0
87 191 -1.0
87 220 -1.0
88 169 1.0
88 196 1.0
88 225 1.0
89 250 1.0
89 283 1.0
89 318 1.0
90 349 1.0
90 388 1.0
90 429 1.0
91 466 1.0
91 511 1.0
91 558 1.0
92 601 1.0
92 652 1.0
92 705 1.0
93 754 1.0
93 811 1.0
93 870 1.0
94 925 1.0
94 988 1.0
94 1053 1.0
95 1114 1.0
95 1183 1.0
95 1254 1.0
96 227 -1.0
96 260 -1.0
96 295 -1.0
97 233 -1.0
97 266 -1.0
97 301 -1.0
98 239 -1.0
98 272 -1.0
98 307 -1.0
99 245 -1.0
99 278 -1.0
99 313 -1.0
100 251 -1.0
100 284 -1.0
100 319 -1.0
101 256 1.0
101 289 1.0
101 324 1.0
102 355 1.0
102 394 1.0
102 435 1.0
103 472 1.0
103 517 1.0
103 564 1.0
104 607 1.0
104 658 1.0
104 711 1.0
105 760 1.0
105 817 1.0
105 876 1.0
106 931 1.0
106 994 1.0
106 1059 1.0
107 1120 1.0
107 1189 1.0
107 1260 1.0
108 326 -1.0
108 365 -1.0
108 406 -1.0
109 332 -1.0
109 371 -1.0
109 412 -1.0
110 338 -1.0
110 377 -1.0
110 418 -1.0
111 344 -1.0
111 383 -1.0
111 424 -1.0
112 350 -1.0
112 389 -1.0
112 430 -1.0
113 356 -1.0
113 395 -1.0
113 436 -1.0
114 361 1.0
114 400 1.0
114 441 1.0
115 478 1.0
115 523 1.0
115 570 1.0
116 613 1.0
116 664 1.0
116 717 1.0
117 766 1.0
117 823 1.0
117 882 1.0
118 937 1.0
118 1000 1.0
118 1065 1.0
119 1126 1.0
119 1195 1.0
119 1266 1.0
120 443 -1.0
120 488 -1.0
120 535 -1.0
121 449 -1.0
121 494 -1.0
121 541 -1.0
122 455 -1.0
122 500 -1.0
122 547 -1.0
123 461 -1.0
123 506 -1.0
123 553 -1.0
124 467 -1.0
124 512 -1.0
124 559 -1.0
125 473 -1.0
125 518 -1.0
125 565 -1.0
126 479 -1.0
126 524 -1.0
126 571 -1.0
127 484 1.0
127 529 1.0
127 576 1.0
128 619 1.0
128 670 1.0
128 723 1.0
129 772 1.0
129 829 1.0
129 888 1.0
130 943 1.0
130 1006 1.0
130 1071 1.0
131 1132 1.0
131 1201 1.0
131 1272 1.0
132 578 -1.0
132 629 -1.0
132 682 -1.0
133 584 -1.0
133 635 -1.0
133 688 -1.0
134 590 -1.0
134 641 -1.0
134 694 -1.0
135 596 -1.0
135 647 -1.0
135 700 -1.0
136 602 -1.0
136 653 -1.0
136 706 -1.0
137 608 -1.0
137 659 -1.0
137 712 -1.0
138 614 -1.0
138 665 -1.0
138 718 -1.0
139 620 -1.0
139 671 -1.0
139 724 -1.0
140 625 1.0
140 676 1.0
140 729 1.0
141 778 1.0
141 835 1.0
141 894 1.0
142 949 1.0
142 1012 1.0
142 1077 1.0
143 1138 1.0
143 1207 1.0
143 1278 1.0
144 731 -1.0
144 788 -1.0
144 847 -1.0
145 737 -1.0
145 794 -1.0
145 853 -1.0
146 743 -1.0
146 800 -1.0
146 859 -1.0
147 749 -1.0
147 806 -1.0
147 865 -1.0
148 755 -1.0
148 812 -1.0
148 871 -1.0
149 761 -1.0
149 818 -1.0
149 877 -1.0
150 767 -1.0
150 824 -1.0
150 883 -1.0
151 773 -1.0
151 830 -1.0
151 889 -1.0
152 779 -1.0
152 836 -1.0
152 895 -1.0
153 784 1.0
153 841 1.0
153 900 1.0
154 955 1.0
154 1018 1.0
154 1083 1.0
155 1144 1.0
155 1213 1.0
155 1284 1.0
156 902 -1.0
156 965 -1.0
156 1030 -1.0
157 908 -1.0
157 971 -1.0
157 1036 -1.0
158 914 -1.0
158 977 -1.0
158 1042 -1.0
159 920 -1.0
159 983 -1.0
159 1048 -1.0
160 926 -1.0
160 989 -1.0
160 1054 -1.0
161 932 -1.0
161 995 -1.0
161 1060 -1.0
162 938 -1.0
162 1001 -1.0
162 1066 -1.0
163 944 -1.0
163 1007 -1.0
163 1072 -1.0
164 950 -1.0
164 1013 -1.0
164 1078 -1.0
165 956 -1.0
165 1019 -1.0
165 1084 -1.0
166 961 1.0
166 1024 1.0
166 1089 1.0
167 1150 1.0
167 1219 1.0
167 1290 1.0
168 1091 -1.0
168 1160 -1.0
168 1231 -1.0
169 1097 -1.0
169 1166 -1.0
169 1237 -1.0
170 1103 -1.0
170 1172 -1.0
170 1243 -1.0
171 1109 -1.0
171 1178 -1.0
171 1249 -1.0
172 1115 -1.0
172 1184 -1.0
172 1255 -1.0
173 1121 -1.0
173 1190 -1.0
173 1261 -1.0
174 1127 -1.0
174 1196 -1.0
174 1267 -1.0
175 1133 -1.0
175 1202 -1.0
175 1273 -1.0
176 1139 -1.0
176 1208 -1.0
176 1279 -1.0
177 1145 -1.0
177 1214 -1.0
177 1285 -1.0
178 1151 -1.0
178 1220 -1.0
178 1291 -1.0
179 1 1.0
179 4 1.0
179 9 1.0
179 16 1.0
179 25 1.0
179 36 1.0
179 49 1.0
179 64 1.0
179 81 1.0
179 100 1.0
179 121 1.0
179 144 1.0
179 169 1.0
179 196 1.0
179 225 1.0
179 256 1.0
179 289 1.0
179 324 1.0
179 361 1.0
179 400 1.0
179 441 1.0
179 484 1.0
179 529 1.0
179 576 1.0
179 625 1.0
179 676 1.0
179 729 1.0
179 784 1.0
179 841 1.0
179 900 1.0
179 961 1.0
179 1024 1.0
179 1089 1.0
179 1156 1.0
179 1225 1.0
179 1296 1.0

BCOORD
162
0 3.095936173420447e-07
1 1.211149421809915e-05
2 0.08327349708357301
3 3.095936173420447e-07
4 1.7806630662052514e-05
5 0.08327349708357301
6 1.211149421809915e-05
7 3.095936173420447e-07
8 0.08327349708357301
9 1.7806630662052514e-05
10 3.095936173420447e-07
11 0.08327349708357301
12 2.9608531262809618e-05
13 1.211149421809915e-05
14 0.08327349708357301
15 3.095936173420447e-07
16 1.7806630662052514e-05
17 0.08327349708357301
18 1.211149421809915e-05
19 2.9608531262809618e-05
20 0.08327349708357301
21 1.7806630662052514e-05
22 3.095936173420447e-07
23 0.08327349708357301
24 2.9608531262809618e-05
25 1.7806630662052514e-05
26 0.08327349708357301
27 3.095936173420447e-07
28 1.211149421809915e-05
29 0.08327349708357301
30 1.211149421809915e-05
31 2.9608531262809618e-05
32 0.08327349708357301
33 1.211149421809915e-05
34 3.095936173420447e-07
35 0.08327349708357301
36 0.08333333333333333
37 0.11551752146754397
38 0.11667265798346468
39 0.11667265798346468
40 0.11435094813749536
41 0.11551752146754397
42 0.11394948847957567
43 0.11593030242207014
44 0.11435094813749536
45 0.11551752146754397
46 0.11593030242207014
47 0.11394948847957567
49 0.08333333333333333
50 0.11667265798346468
51 0.11667265798346468
52 0.11551752146754397
53 0.11435094813749536
54 0.11593030242207014
55 0.11394948847957567
56 0.11551752146754397
57 0.11435094813749536
58 0.11394948847957567
59 0.11593030242207014
60 0.0011667654722763397
61 -0.0011667654722763397
62 0.08333333333333333
63 0.11551752146754397
64 0.11593030242207014
65 0.11394948847957567
66 0.11435094813749536
67 0.11551752146754397
68 0.11394948847957567
69 0.11593030242207014
70 0.11435094813749536
71 0.11551752146754397
72 -0.0011667654722763397
73 0.0011667654722763397
75 0.08333333333333333
76 0.11394948847957567
77 0.11593030242207014
78 0.11551752146754397
79 0.11435094813749536
80 0.11593030242207014
81 0.11394948847957567
82 0.11551752146754397
83 0.11435094813749536
84 0.001980814606100509
86 0.0015837358927087263
87 0.00041708593795000405
88 0.08333333333333333
89 0.11551752146754397
90 0.11667265798346468
91 0.11667265798346468
92 0.11435094813749536
93 0.11551752146754397
94 0.11394948847957567
95 0.11593030242207014
97 0.001980814606100509
98 0.00041708593795000405
99 0.0015837358927087263
101 0.08333333333333333
102 0.11667265798346468
103 0.11667265798346468
104 0.11551752146754397
105 0.11435094813749536
106 0.11593030242207014
107 0.11394948847957567
108 0.00041708593795000405
109 0.0015837358927087263
110 0.001980814606100509
112 0.00116676547227634
113 -0.00116676547227634
114 0.08333333333333333
115 0.11551752146754397
116 0.11593030242207014
117 0.11394948847957567
118 0.11435094813749536
119 0.11551752146754397
120 0.0015837358927087263
121 0.00041708593795000405
123 0.001980814606100509
124 -0.00116676547227634
125 0.00116676547227634
127 0.08333333333333333
128 0.11394948847957567
129 0.11593030242207014
130 0.11551752146754397
131 0.11435094813749536
132 -0.0019808146061005088
134 -0.0004170859379500037
135 -0.0015837358927087263
136 0.0019808146061005088
138 0.0015837358927087266
139 0.00041708593795000345
140 0.08333333333333333
141 0.11551752146754397
142 0.11667265798346468
143 0.11667265798346468
145 -0.0019808146061005088
146 -0.0015837358927087263
147 -0.0004170859379500037
149 0.0019808146061005088
150 0.00041708593795000345
151 0.0015837358927087266
153 0.08333333333333333
154 0.11667265798346468
155 0.11667265798346468
156 -0.0015837358927087263
157 -0.0004170859379500037
158 -0.0019808146061005088
160 0.00041708593795000345
161 0.0015837358927087266
162 0.0019808146061005088
164 0.00116676547227634
165 -0.00116676547227634
166 0.08333333333333333
167 0.11551752146754397
168 -0.0004170859379500037
169 -0.0015837358927087263
171 -0.0019808146061005088
172 0.0015837358927087266
173 0.00041708593795000345
175 0.0019808146061005088
176 -0.00116676547227634
177 0.00116676547227634
179 1.0
